@relation Employee_Data

@attribute Emp_ID numeric
@attribute Name string
@attribute Age numeric
@attribute Department {HR,IT,Sales,Finance}
@attribute Salary numeric
@attribute Experience numeric
@attribute Performance {Good,Average,Poor}

@data
101,'Arun',25,IT,35000,2,Good
102,'Bala',30,HR,28000,5,Average
103,'Chitra',27,Finance,40000,4,Good
104,'Divya',35,Sales,25000,8,Poor
105,'Eswar',29,IT,45000,6,Good
106,'Fathima',31,HR,30000,7,Average
107,'Ganesh',26,Sales,22000,3,Poor
108,'Hari',32,Finance,50000,9,Good
